% File represents an instance of a Composite Structure problem to be solved by a CP framework
% Created on 2025-03-26 10:42:03.559
T = 50;
n = 36;
m = 60;
edges = [(1, 2),
(7, 8),
(13, 14),
(19, 20),
(26, 25),
(31, 32),
(2, 3),
(8, 9),
(14, 15),
(21, 20),
(26, 27),
(32, 33),
(3, 4),
(9, 10),
(16, 15),
(21, 22),
(27, 28),
(34, 33),
(4, 5),
(11, 10),
(17, 16),
(23, 22),
(28, 29),
(34, 35),
(5, 6),
(11, 12),
(17, 18),
(24, 23),
(30, 29),
(36, 35),
(1, 7),
(7, 13),
(13, 19),
(19, 25),
(31, 25),
(2, 8),
(8, 14),
(14, 20),
(26, 20),
(26, 32),
(3, 9),
(9, 15),
(21, 15),
(21, 27),
(27, 33),
(4, 10),
(16, 10),
(16, 22),
(22, 28),
(34, 28),
(11, 5),
(17, 11),
(17, 23),
(23, 29),
(35, 29),
(12, 6),
(18, 12),
(18, 24),
(24, 30),
(36, 30)];
counts = [|6, 16, 6, 22,
|6, 14, 6, 18,
|6, 10, 6, 16,
|4, 10, 4, 14,
|4, 10, 4, 12,
|2, 10, 2, 10,
|4, 16, 4, 22,
|4, 14, 4, 18,
|4, 10, 4, 16,
|4, 8, 4, 12,
|4, 10, 4, 14,
|4, 10, 4, 12,
|4, 12, 4, 20,
|4, 12, 4, 14,
|4, 8, 4, 12,
|4, 10, 4, 12,
|4, 10, 4, 18,
|4, 10, 4, 16,
|4, 10, 4, 18,
|4, 10, 4, 14,
|4, 10, 4, 16,
|4, 10, 4, 10,
|4, 10, 4, 12,
|4, 10, 4, 14,
|4, 10, 4, 14,
|4, 10, 4, 16,
|4, 10, 4, 14,
|4, 8, 4, 10,
|4, 6, 4, 10,
|4, 6, 4, 14,
|4, 12, 4, 14,
|4, 8, 4, 14,
|4, 8, 4, 10,
|4, 8, 4, 14,
|4, 6, 4, 14,
|6, 6, 6, 16|];
